1742231
18,4,39,55,31,41,11,0,53,12,46,3,19,64,44,26,16,58,15,1,47,23,60,20,37,6,42,30,21,51,32,56,17,9,13,43,52,36,61,38,50,34,67,7,14,57,8,35,49,27,62,2,29,5,10,65,25,54,45,33,66,63,40,24,28,59,22,48,18